NAME 
ROWS
 N  OBJ
 L  R0      
 E  R1      
 E  R2      
 E  R3      
 E  R4      
 E  R5      
 E  R6      
 E  R7      
 E  R8      
 E  R9      
 E  R10     
 E  R11     
 E  R12     
 E  R13     
 E  R14     
 E  R15     
 E  R16     
 E  R17     
 E  R18     
 E  R19     
 E  R20     
COLUMNS
    MARKER    'MARKER'                 'INTORG'
    I0(7)     OBJ       -196
    I0(7)     R0        197
    I0(7)     R3        11
    I0(7)     R4        19
    I0(7)     R5        12
    I0(7)     R7        12
    I0(7)     R8        19
    I0(7)     R20       1
    I1(8)     OBJ       -33
    I1(8)     R0        -113
    I1(8)     R1        11
    I1(8)     R3        2
    I1(8)     R4        4
    I1(8)     R5        10
    I1(8)     R6        19
    I1(8)     R8        8
    I1(8)     R20       1
    I2(8)     OBJ       -1
    I2(8)     R0        -166
    I2(8)     R1        11
    I2(8)     R2        13
    I2(8)     R3        3
    I2(8)     R4        6
    I2(8)     R5        14
    I2(8)     R8        5
    I2(8)     R20       1
    I3(6)     OBJ       38
    I3(6)     R0        15
    I3(6)     R1        16
    I3(6)     R2        2
    I3(6)     R4        8
    I3(6)     R7        16
    I3(6)     R20       1
    I4(7)     OBJ       -9
    I4(7)     R0        -21
    I4(7)     R1        14
    I4(7)     R2        9
    I4(7)     R4        4
    I4(7)     R6        11
    I4(7)     R7        10
    I4(7)     R20       1
    I5(7)     OBJ       -173
    I5(7)     R0        11
    I5(7)     R2        17
    I5(7)     R4        12
    I5(7)     R6        3
    I5(7)     R7        -1
    I5(7)     R8        5
    I5(7)     R20       1
    I6(9)     OBJ       -131
    I6(9)     R0        183
    I6(9)     R2        19
    I6(9)     R3        14
    I6(9)     R4        17
    I6(9)     R5        16
    I6(9)     R6        1
    I6(9)     R7        19
    I6(9)     R8        1
    I6(9)     R20       1
    I7(7)     OBJ       -37
    I7(7)     R0        -78
    I7(7)     R1        8
    I7(7)     R3        17
    I7(7)     R4        7
    I7(7)     R5        18
    I7(7)     R7        8
    I7(7)     R20       1
    MARKER    'MARKER'                 'INTEND'
    C8(16)    R2        19
    C8(16)    R3        18
    C8(16)    R5        18
    C8(16)    R6        15
    C8(16)    R7        15
    C8(16)    R8        15
    C8(16)    R10       19
    C8(16)    R11       13
    C8(16)    R12       5
    C8(16)    R13       14
    C8(16)    R14       10
    C8(16)    R15       5
    C8(16)    R16       13
    C8(16)    R17       2
    C8(16)    R18       18
    C8(16)    R19       6
    C9(13)    OBJ       -1
    C9(13)    R0        -9
    C9(13)    R2        -1
    C9(13)    R3        -1
    C9(13)    R4        18
    C9(13)    R6        14
    C9(13)    R8        12
    C9(13)    R9        4
    C9(13)    R10       10
    C9(13)    R13       16
    C9(13)    R16       16
    C9(13)    R17       5
    C9(13)    R18       1
    C9(13)    R19       8
    C10(13)   OBJ       2
    C10(13)   R0        -7
    C10(13)   R2        2
    C10(13)   R3        4
    C10(13)   R4        12
    C10(13)   R7        5
    C10(13)   R8        18
    C10(13)   R10       12
    C10(13)   R11       19
    C10(13)   R14       17
    C10(13)   R16       7
    C10(13)   R17       14
    C10(13)   R18       9
    C10(13)   R19       11
    C11(13)   OBJ       -4
    C11(13)   R0        5
    C11(13)   R1        19
    C11(13)   R4        -1
    C11(13)   R5        -1
    C11(13)   R6        13
    C11(13)   R7        3
    C11(13)   R10       5
    C11(13)   R12       -1
    C11(13)   R14       8
    C11(13)   R15       13
    C11(13)   R16       12
    C11(13)   R18       19
    C11(13)   R19       16
    C12(11)   OBJ       -8
    C12(11)   R0        -4
    C12(11)   R2        -1
    C12(11)   R6        11
    C12(11)   R10       19
    C12(11)   R11       4
    C12(11)   R13       2
    C12(11)   R14       5
    C12(11)   R16       3
    C12(11)   R17       10
    C12(11)   R18       18
    C12(11)   R19       11
    C13(14)   OBJ       4
    C13(14)   R0        2
    C13(14)   R1        8
    C13(14)   R2        6
    C13(14)   R3        9
    C13(14)   R4        19
    C13(14)   R7        -1
    C13(14)   R9        16
    C13(14)   R10       4
    C13(14)   R13       18
    C13(14)   R14       6
    C13(14)   R16       17
    C13(14)   R17       4
    C13(14)   R18       13
    C13(14)   R19       8
    C14(17)   OBJ       -10
    C14(17)   R0        7
    C14(17)   R1        8
    C14(17)   R3        10
    C14(17)   R5        -1
    C14(17)   R6        3
    C14(17)   R7        13
    C14(17)   R8        19
    C14(17)   R9        8
    C14(17)   R10       3
    C14(17)   R11       2
    C14(17)   R12       10
    C14(17)   R13       15
    C14(17)   R14       6
    C14(17)   R15       9
    C14(17)   R16       8
    C14(17)   R17       6
    C14(17)   R19       17
    C15(16)   OBJ       -7
    C15(16)   R0        -4
    C15(16)   R2        15
    C15(16)   R3        1
    C15(16)   R5        1
    C15(16)   R6        4
    C15(16)   R7        12
    C15(16)   R8        15
    C15(16)   R9        19
    C15(16)   R10       9
    C15(16)   R11       6
    C15(16)   R12       10
    C15(16)   R13       7
    C15(16)   R15       17
    C15(16)   R16       19
    C15(16)   R17       19
    C15(16)   R18       9
    C16(13)   OBJ       -6
    C16(13)   R0        -10
    C16(13)   R1        1
    C16(13)   R2        2
    C16(13)   R3        6
    C16(13)   R5        8
    C16(13)   R6        14
    C16(13)   R7        7
    C16(13)   R8        11
    C16(13)   R9        10
    C16(13)   R13       15
    C16(13)   R14       1
    C16(13)   R15       18
    C16(13)   R18       15
    C17(10)   OBJ       -7
    C17(10)   R0        3
    C17(10)   R1        -1
    C17(10)   R4        18
    C17(10)   R6        17
    C17(10)   R7        2
    C17(10)   R9        2
    C17(10)   R13       11
    C17(10)   R14       19
    C17(10)   R18       6
    C17(10)   R19       -1
    C18(12)   OBJ       3
    C18(12)   R0        2
    C18(12)   R2        5
    C18(12)   R3        15
    C18(12)   R5        12
    C18(12)   R6        9
    C18(12)   R7        17
    C18(12)   R9        1
    C18(12)   R12       17
    C18(12)   R13       3
    C18(12)   R15       9
    C18(12)   R16       -1
    C18(12)   R18       6
    C19(12)   OBJ       -10
    C19(12)   R0        -5
    C19(12)   R1        16
    C19(12)   R2        -1
    C19(12)   R3        7
    C19(12)   R4        2
    C19(12)   R5        3
    C19(12)   R8        9
    C19(12)   R9        3
    C19(12)   R10       18
    C19(12)   R12       16
    C19(12)   R13       14
    C19(12)   R14       2
    C20(1)    R1        1
    C21(1)    R2        1
    C22(1)    R3        1
    C23(1)    R4        1
    C24(1)    R5        1
    C25(1)    R6        1
    C26(1)    R7        1
    C27(1)    R8        1
    C28(1)    R9        1
    C29(1)    R10       1
    C30(1)    R11       1
    C31(1)    R12       1
    C32(1)    R13       1
    C33(1)    R14       1
    C34(1)    R15       1
    C35(1)    R16       1
    C36(1)    R17       1
    C37(1)    R18       1
    C38(1)    R19       1
    C39(1)    R20       1
RHS
    RHS1      R0        3.7778011485042873e+02
    RHS1      R1        95
    RHS1      R2        90
    RHS1      R3        78
    RHS1      R4        56
    RHS1      R5        81
    RHS1      R6        92
    RHS1      R7        82
    RHS1      R8        63
    RHS1      R9        88
    RHS1      R10       98
    RHS1      R11       84
    RHS1      R12       81
    RHS1      R13       77
    RHS1      R14       64
    RHS1      R15       71
    RHS1      R16       87
    RHS1      R17       50
    RHS1      R18       63
    RHS1      R19       64
    RHS1      R20       2
BOUNDS
 UP BND1      I0(7)     2
 UP BND1      I1(8)     2
 UP BND1      I2(8)     2
 UP BND1      I3(6)     2
 UP BND1      I4(7)     2
 UP BND1      I5(7)     2
 UP BND1      I6(9)     2
 UP BND1      I7(7)     2
ENDATA
